p cnf 14 23
14 -10 -3 0
14 -9 -5 0
14 7 1 0
-14 -3 -2 0
13 4 2 0
13 3 -1 0
-13 3 1 0
12 -11 -9 0
12 11 -4 0
-12 10 -5 0
12 10 1 0
12 9 -7 0
12 8 -4 0
-12 -7 -5 0
11 -10 -2 0
-11 8 3 0
-11 4 3 0
-9 8 6 0
9 6 4 0
-9 -4 3 0
8 6 3 0
5 -4 3 0
5 4 -2 0
